NAME
* Written by MOSEK version 10.0.34
OBJSENSE
    MAX
ROWS
 N  OBJ
 L  C1
COLUMNS
    X1        OBJ       0
    X1        C1        1
    X2        OBJ       1
    X2        C1        2
RHS     
    rhs       C1        6
RANGES
BOUNDS
 LO bound     X1        -2
 LO bound     X2        1
ENDATA
